certificates/rado_a15_c218_N64.cnf
c Rad2 upper bound instance: x1 + 15*x2 - x3 = 218, interval [1,64]
p cnf 64 542
1 8 15 0
-1 -8 -15 0
1 16 23 0
-1 -16 -23 0
1 17 38 0
-1 -17 -38 0
1 18 53 0
-1 -18 -53 0
2 9 15 0
-2 -9 -15 0
2 16 24 0
-2 -16 -24 0
2 17 39 0
-2 -17 -39 0
2 18 54 0
-2 -18 -54 0
3 10 15 0
-3 -10 -15 0
3 16 25 0
-3 -16 -25 0
3 17 40 0
-3 -17 -40 0
3 18 55 0
-3 -18 -55 0
4 11 15 0
-4 -11 -15 0
4 16 26 0
-4 -16 -26 0
4 17 41 0
-4 -17 -41 0
4 18 56 0
-4 -18 -56 0
5 12 15 0
-5 -12 -15 0
5 16 27 0
-5 -16 -27 0
5 17 42 0
-5 -17 -42 0
5 18 57 0
-5 -18 -57 0
6 13 15 0
-6 -13 -15 0
6 16 28 0
-6 -16 -28 0
6 17 43 0
-6 -17 -43 0
6 18 58 0
-6 -18 -58 0
7 14 15 0
-7 -14 -15 0
7 16 29 0
-7 -16 -29 0
7 17 44 0
-7 -17 -44 0
7 18 59 0
-7 -18 -59 0
8 15 0
-8 -15 0
8 16 30 0
-8 -16 -30 0
8 17 45 0
-8 -17 -45 0
8 18 60 0
-8 -18 -60 0
1 9 14 0
-1 -9 -14 0
9 15 16 0
-9 -15 -16 0
9 16 31 0
-9 -16 -31 0
9 17 46 0
-9 -17 -46 0
9 18 61 0
-9 -18 -61 0
2 10 14 0
-2 -10 -14 0
10 15 17 0
-10 -15 -17 0
10 16 32 0
-10 -16 -32 0
10 17 47 0
-10 -17 -47 0
10 18 62 0
-10 -18 -62 0
3 11 14 0
-3 -11 -14 0
11 15 18 0
-11 -15 -18 0
11 16 33 0
-11 -16 -33 0
11 17 48 0
-11 -17 -48 0
11 18 63 0
-11 -18 -63 0
4 12 14 0
-4 -12 -14 0
12 15 19 0
-12 -15 -19 0
12 16 34 0
-12 -16 -34 0
12 17 49 0
-12 -17 -49 0
12 18 64 0
-12 -18 -64 0
5 13 14 0
-5 -13 -14 0
13 15 20 0
-13 -15 -20 0
13 16 35 0
-13 -16 -35 0
13 17 50 0
-13 -17 -50 0
6 14 0
-6 -14 0
14 15 21 0
-14 -15 -21 0
14 16 36 0
-14 -16 -36 0
14 17 51 0
-14 -17 -51 0
15 22 0
-15 -22 0
15 16 37 0
-15 -16 -37 0
15 17 52 0
-15 -17 -52 0
8 14 16 0
-8 -14 -16 0
15 16 23 0
-15 -16 -23 0
16 38 0
-16 -38 0
16 17 53 0
-16 -17 -53 0
9 14 17 0
-9 -14 -17 0
15 17 24 0
-15 -17 -24 0
16 17 39 0
-16 -17 -39 0
17 54 0
-17 -54 0
10 14 18 0
-10 -14 -18 0
15 18 25 0
-15 -18 -25 0
16 18 40 0
-16 -18 -40 0
17 18 55 0
-17 -18 -55 0
11 14 19 0
-11 -14 -19 0
15 19 26 0
-15 -19 -26 0
16 19 41 0
-16 -19 -41 0
17 19 56 0
-17 -19 -56 0
12 14 20 0
-12 -14 -20 0
15 20 27 0
-15 -20 -27 0
16 20 42 0
-16 -20 -42 0
17 20 57 0
-17 -20 -57 0
13 14 21 0
-13 -14 -21 0
15 21 28 0
-15 -21 -28 0
16 21 43 0
-16 -21 -43 0
17 21 58 0
-17 -21 -58 0
14 22 0
-14 -22 0
15 22 29 0
-15 -22 -29 0
16 22 44 0
-16 -22 -44 0
17 22 59 0
-17 -22 -59 0
14 15 23 0
-14 -15 -23 0
15 23 30 0
-15 -23 -30 0
16 23 45 0
-16 -23 -45 0
17 23 60 0
-17 -23 -60 0
1 13 24 0
-1 -13 -24 0
14 16 24 0
-14 -16 -24 0
15 24 31 0
-15 -24 -31 0
16 24 46 0
-16 -24 -46 0
17 24 61 0
-17 -24 -61 0
2 13 25 0
-2 -13 -25 0
14 17 25 0
-14 -17 -25 0
15 25 32 0
-15 -25 -32 0
16 25 47 0
-16 -25 -47 0
17 25 62 0
-17 -25 -62 0
3 13 26 0
-3 -13 -26 0
14 18 26 0
-14 -18 -26 0
15 26 33 0
-15 -26 -33 0
16 26 48 0
-16 -26 -48 0
17 26 63 0
-17 -26 -63 0
4 13 27 0
-4 -13 -27 0
14 19 27 0
-14 -19 -27 0
15 27 34 0
-15 -27 -34 0
16 27 49 0
-16 -27 -49 0
17 27 64 0
-17 -27 -64 0
5 13 28 0
-5 -13 -28 0
14 20 28 0
-14 -20 -28 0
15 28 35 0
-15 -28 -35 0
16 28 50 0
-16 -28 -50 0
6 13 29 0
-6 -13 -29 0
14 21 29 0
-14 -21 -29 0
15 29 36 0
-15 -29 -36 0
16 29 51 0
-16 -29 -51 0
7 13 30 0
-7 -13 -30 0
14 22 30 0
-14 -22 -30 0
15 30 37 0
-15 -30 -37 0
16 30 52 0
-16 -30 -52 0
8 13 31 0
-8 -13 -31 0
14 23 31 0
-14 -23 -31 0
15 31 38 0
-15 -31 -38 0
16 31 53 0
-16 -31 -53 0
9 13 32 0
-9 -13 -32 0
14 24 32 0
-14 -24 -32 0
15 32 39 0
-15 -32 -39 0
16 32 54 0
-16 -32 -54 0
10 13 33 0
-10 -13 -33 0
14 25 33 0
-14 -25 -33 0
15 33 40 0
-15 -33 -40 0
16 33 55 0
-16 -33 -55 0
11 13 34 0
-11 -13 -34 0
14 26 34 0
-14 -26 -34 0
15 34 41 0
-15 -34 -41 0
16 34 56 0
-16 -34 -56 0
12 13 35 0
-12 -13 -35 0
14 27 35 0
-14 -27 -35 0
15 35 42 0
-15 -35 -42 0
16 35 57 0
-16 -35 -57 0
13 36 0
-13 -36 0
14 28 36 0
-14 -28 -36 0
15 36 43 0
-15 -36 -43 0
16 36 58 0
-16 -36 -58 0
13 14 37 0
-13 -14 -37 0
14 29 37 0
-14 -29 -37 0
15 37 44 0
-15 -37 -44 0
16 37 59 0
-16 -37 -59 0
13 15 38 0
-13 -15 -38 0
14 30 38 0
-14 -30 -38 0
15 38 45 0
-15 -38 -45 0
16 38 60 0
-16 -38 -60 0
1 12 39 0
-1 -12 -39 0
13 16 39 0
-13 -16 -39 0
14 31 39 0
-14 -31 -39 0
15 39 46 0
-15 -39 -46 0
16 39 61 0
-16 -39 -61 0
2 12 40 0
-2 -12 -40 0
13 17 40 0
-13 -17 -40 0
14 32 40 0
-14 -32 -40 0
15 40 47 0
-15 -40 -47 0
16 40 62 0
-16 -40 -62 0
3 12 41 0
-3 -12 -41 0
13 18 41 0
-13 -18 -41 0
14 33 41 0
-14 -33 -41 0
15 41 48 0
-15 -41 -48 0
16 41 63 0
-16 -41 -63 0
4 12 42 0
-4 -12 -42 0
13 19 42 0
-13 -19 -42 0
14 34 42 0
-14 -34 -42 0
15 42 49 0
-15 -42 -49 0
16 42 64 0
-16 -42 -64 0
5 12 43 0
-5 -12 -43 0
13 20 43 0
-13 -20 -43 0
14 35 43 0
-14 -35 -43 0
15 43 50 0
-15 -43 -50 0
6 12 44 0
-6 -12 -44 0
13 21 44 0
-13 -21 -44 0
14 36 44 0
-14 -36 -44 0
15 44 51 0
-15 -44 -51 0
7 12 45 0
-7 -12 -45 0
13 22 45 0
-13 -22 -45 0
14 37 45 0
-14 -37 -45 0
15 45 52 0
-15 -45 -52 0
8 12 46 0
-8 -12 -46 0
13 23 46 0
-13 -23 -46 0
14 38 46 0
-14 -38 -46 0
15 46 53 0
-15 -46 -53 0
9 12 47 0
-9 -12 -47 0
13 24 47 0
-13 -24 -47 0
14 39 47 0
-14 -39 -47 0
15 47 54 0
-15 -47 -54 0
10 12 48 0
-10 -12 -48 0
13 25 48 0
-13 -25 -48 0
14 40 48 0
-14 -40 -48 0
15 48 55 0
-15 -48 -55 0
11 12 49 0
-11 -12 -49 0
13 26 49 0
-13 -26 -49 0
14 41 49 0
-14 -41 -49 0
15 49 56 0
-15 -49 -56 0
12 50 0
-12 -50 0
13 27 50 0
-13 -27 -50 0
14 42 50 0
-14 -42 -50 0
15 50 57 0
-15 -50 -57 0
12 13 51 0
-12 -13 -51 0
13 28 51 0
-13 -28 -51 0
14 43 51 0
-14 -43 -51 0
15 51 58 0
-15 -51 -58 0
12 14 52 0
-12 -14 -52 0
13 29 52 0
-13 -29 -52 0
14 44 52 0
-14 -44 -52 0
15 52 59 0
-15 -52 -59 0
12 15 53 0
-12 -15 -53 0
13 30 53 0
-13 -30 -53 0
14 45 53 0
-14 -45 -53 0
15 53 60 0
-15 -53 -60 0
1 11 54 0
-1 -11 -54 0
12 16 54 0
-12 -16 -54 0
13 31 54 0
-13 -31 -54 0
14 46 54 0
-14 -46 -54 0
15 54 61 0
-15 -54 -61 0
2 11 55 0
-2 -11 -55 0
12 17 55 0
-12 -17 -55 0
13 32 55 0
-13 -32 -55 0
14 47 55 0
-14 -47 -55 0
15 55 62 0
-15 -55 -62 0
3 11 56 0
-3 -11 -56 0
12 18 56 0
-12 -18 -56 0
13 33 56 0
-13 -33 -56 0
14 48 56 0
-14 -48 -56 0
15 56 63 0
-15 -56 -63 0
4 11 57 0
-4 -11 -57 0
12 19 57 0
-12 -19 -57 0
13 34 57 0
-13 -34 -57 0
14 49 57 0
-14 -49 -57 0
15 57 64 0
-15 -57 -64 0
5 11 58 0
-5 -11 -58 0
12 20 58 0
-12 -20 -58 0
13 35 58 0
-13 -35 -58 0
14 50 58 0
-14 -50 -58 0
6 11 59 0
-6 -11 -59 0
12 21 59 0
-12 -21 -59 0
13 36 59 0
-13 -36 -59 0
14 51 59 0
-14 -51 -59 0
7 11 60 0
-7 -11 -60 0
12 22 60 0
-12 -22 -60 0
13 37 60 0
-13 -37 -60 0
14 52 60 0
-14 -52 -60 0
8 11 61 0
-8 -11 -61 0
12 23 61 0
-12 -23 -61 0
13 38 61 0
-13 -38 -61 0
14 53 61 0
-14 -53 -61 0
9 11 62 0
-9 -11 -62 0
12 24 62 0
-12 -24 -62 0
13 39 62 0
-13 -39 -62 0
14 54 62 0
-14 -54 -62 0
10 11 63 0
-10 -11 -63 0
12 25 63 0
-12 -25 -63 0
13 40 63 0
-13 -40 -63 0
14 55 63 0
-14 -55 -63 0
11 64 0
-11 -64 0
12 26 64 0
-12 -26 -64 0
13 41 64 0
-13 -41 -64 0
14 56 64 0
-14 -56 -64 0
