certificates/rado_a15_c218_N64.drat
15 -60 11 0
-15 -61 -64 0
-61 -64 0
d -15 -61 -64 0
-64 0
11 0
15 0
-8 0
-22 0
-4 0
-18 0
60 0
-53 0
14 0
56 0
12 0
-7 0
1 0
-6 0
-9 0
-3 0
-19 0
-21 0
-23 0
-52 0
-63 0
-48 0
-49 0
-5 0
-20 0
-39 0
-50 0
59 0
-54 0
58 0
61 0
55 0
57 0
-51 0
17 0
2 0
-62 0
0
